c Qdimacs file from skolem function generator
p cnf 965 2350
a 547 548 549 550 551 552 553 554 555 556 557 558 559 560 561 562 563 564 565 566 567 568 569 570 571 572 573 574 575 576 577 578 579 580 581 582 583 584 585 586 587 588 589 590 591 592 593 594 595 596 597 598 599 600 601 602 603 604 605 606 607 608 609 610 611 612 613 614 615 616 617 618 619 620 621 622 623 624 625 626 627 628 629 630 631 632 633 634 635 636 637 638 639 640 641 642 643 644 645 646 647 648 649 650 651 652 653 654 655 656 657 658 659 660 661 662 663 664 665 666 667 668 669 670 671 672 673 674 675 676 677 678 679 680 681 682 683 684 685 686 687 688 689 690 691 692 693 694 695 696 697 698 699 700 701 702 703 704 705 706 707 708 709 710 711 712 713 714 715 716 717 718 719 720 721 722 723 724 725 726 727 728 729 730 731 732 733 734 735 736 737 738 739 740 741 742 743 744 745 746 747 748 749 750 751 752 753 754 755 756 757 758 759 760 761 762 763 764 765 766 767 768 769 770 771 772 773 774 775 776 777 778 779 780 781 782 783 784 785 786 787 788 789 790 791 792 793 794 795 796 797 798 799 800 801 802 803 804 805 806 807 808 809 810 811 812 813 814 815 816 817 818 819 820 821 822 823 824 825 826 827 828 829 830 831 832 833 834 835 836 837 838 839 840 841 842 843 844 845 846 847 848 849 850 851 852 853 854 855 856 857 858 859 860 861 862 863 864 865 866 867 868 869 870 871 872 873 874 875 876 877 878 879 880 881 882 883 884 885 886 887 888 889 890 891 892 893 894 895 896 897 898 899 900 901 902 903 904 905 906 907 908 909 910 911 912 913 914 915 916 917 918 919 920 921 922 923 924 925 926 927 928 929 930 931 932 933 934 935 936 937 938 939 940 941 942 943 944 945 946 947 948 949 950 951 952 953 954 955 956 957 958 959 960 961 962 963 964 0
e 506 507 508 509 510 511 512 513 514 515 516 517 518 519 520 521 522 523 524 525 526 527 528 529 530 531 532 533 534 535 536 537 538 539 540 541 542 543 544 545 546 1 2 3 4 5 6 7 8 9 10 11 12 13 14 15 16 17 18 19 20 21 22 23 24 25 26 27 28 29 30 31 32 33 34 35 36 37 38 39 40 41 42 43 44 45 46 47 48 49 50 51 52 53 54 55 56 57 58 59 60 61 62 63 64 65 66 67 68 69 70 71 72 73 74 75 76 77 78 79 80 81 82 83 84 85 86 87 88 89 90 91 92 93 94 95 96 97 98 99 100 101 102 103 104 105 106 107 108 109 110 111 112 113 114 115 116 117 118 119 120 121 122 123 124 125 126 127 128 129 130 131 132 133 134 135 136 137 138 139 140 141 142 143 144 145 146 147 148 149 150 151 152 153 154 155 156 157 158 159 160 161 162 163 164 165 166 167 168 169 170 171 172 173 174 175 176 177 178 179 180 181 182 183 184 185 186 187 188 189 190 191 192 193 194 195 196 197 198 199 200 201 202 203 204 205 206 207 208 209 210 211 212 213 214 215 216 217 218 219 220 221 222 223 224 225 226 227 228 229 230 231 232 233 234 235 236 237 238 239 240 241 242 243 244 245 246 247 248 249 250 251 252 253 254 255 256 257 258 259 260 261 262 263 264 265 266 267 268 269 270 271 272 273 274 275 276 277 278 279 280 281 282 283 284 285 286 287 288 289 290 291 292 293 294 295 296 297 298 299 300 301 302 303 304 305 306 307 308 309 310 311 312 313 314 315 316 317 318 319 320 321 322 323 324 325 326 327 328 329 330 331 332 333 334 335 336 337 338 339 340 341 342 343 344 345 346 347 348 349 350 351 352 353 354 355 356 357 358 359 360 361 362 363 364 365 366 367 368 369 370 371 372 373 374 375 376 377 378 379 380 381 382 383 384 385 386 387 388 389 390 391 392 393 394 395 396 397 398 399 400 401 402 403 404 405 406 407 408 409 410 411 412 413 414 415 416 417 418 419 420 421 422 423 424 425 426 427 428 429 430 431 432 433 434 435 436 437 438 439 440 441 442 443 444 445 446 447 448 449 450 451 452 453 454 455 456 457 458 459 460 461 462 463 464 465 466 467 468 469 470 471 472 473 474 475 476 477 478 479 480 481 482 483 484 485 486 487 488 489 490 491 492 493 494 495 496 497 498 499 500 501 502 503 504 505 965 0
4 5 8 -60 -63 0
4 -5 -8 -60 -63 0
-4 63 0
-4 -5 8 0
-4 60 0
-4 5 -8 0
5 -6 0
5 561 642 -708 0
-5 708 6 0
-5 -561 6 0
-5 -642 6 0
6 -612 687 7 0
6 -687 -741 7 0
-6 -7 0
-6 -687 741 0
-6 612 687 0
7 561 642 0
-7 -561 0
-7 -642 0
8 612 -9 0
8 -612 9 0
-8 -612 -9 0
-8 612 9 0
9 -573 -10 0
-9 573 0
-9 10 0
10 -11 -29 0
-10 11 0
-10 29 0
11 -688 12 0
11 671 12 0
-11 -12 0
-11 -671 688 0
12 -635 -688 13 0
12 687 -688 13 0
-12 688 0
-12 -13 0
-12 635 -687 0
13 674 687 14 0
13 687 -740 14 0
-13 -14 0
-13 -687 0
-13 -674 740 0
14 -740 15 28 0
14 -740 -15 -28 0
-14 740 0
-14 -15 28 0
-14 15 -28 0
15 16 26 0
-15 -16 0
-15 -26 0
16 601 17 0
-16 -601 0
-16 -17 0
17 18 24 0
-17 -18 0
-17 -24 0
18 686 19 0
-18 -686 0
-18 -19 0
19 20 22 0
-19 -20 0
-19 -22 0
20 652 21 0
-20 -652 0
-20 -21 0
21 -622 -726 0
21 -726 743 0
21 -622 743 0
-21 726 -743 0
-21 622 726 0
-21 622 -743 0
22 -744 23 0
-22 744 0
-22 -23 0
23 -652 -21 0
-23 652 0
-23 21 0
24 -574 25 0
-24 574 0
-24 -25 0
25 -686 -19 0
-25 686 0
-25 19 0
26 -707 27 0
-26 707 0
-26 -27 0
27 -601 -17 0
-27 601 0
-27 17 0
28 -552 -665 0
28 552 665 0
-28 552 -665 0
-28 -552 665 0
29 -30 -56 0
-29 30 0
-29 56 0
30 -31 -52 0
-30 31 0
-30 52 0
31 -32 -36 0
-31 32 0
-31 36 0
32 -688 33 0
32 737 33 0
-32 -33 0
-32 688 -737 0
33 -641 -688 34 0
33 687 -688 34 0
-33 688 0
-33 -34 0
-33 641 -687 0
34 590 687 35 0
34 687 -740 35 0
-34 -35 0
-34 -687 0
-34 -590 740 0
35 652 -740 744 -21 0
35 -652 -740 -744 -21 0
35 652 -740 -744 21 0
35 -652 -740 744 21 0
-35 740 0
-35 -652 744 -21 0
-35 -652 -744 21 0
-35 652 744 21 0
-35 652 -744 -21 0
36 -37 -48 0
-36 37 0
-36 48 0
37 -38 -45 0
-37 38 0
-37 45 0
38 39 42 0
-38 -39 0
-38 -42 0
39 -600 40 0
39 -688 40 0
-39 -40 0
-39 600 688 0
40 687 -688 41 0
40 -688 727 41 0
-40 688 0
-40 -41 0
-40 -687 -727 0
41 -602 687 -740 0
41 687 -712 740 0
-41 -687 0
-41 602 -740 0
-41 712 740 0
42 -688 43 0
42 -704 43 0
-42 -43 0
-42 688 704 0
43 687 -688 44 0
43 -688 689 44 0
-43 688 0
-43 -44 0
-43 -687 -689 0
44 -678 687 740 0
44 687 -724 -740 0
-44 -687 0
-44 724 -740 0
-44 678 740 0
45 -46 0
45 585 688 0
-45 -585 46 0
-45 -688 46 0
46 687 -688 47 0
46 -688 748 47 0
-46 688 0
-46 -47 0
-46 -687 -748 0
47 -557 687 740 0
47 -645 687 -740 0
-47 -687 0
-47 645 -740 0
-47 557 740 0
48 -688 49 0
48 680 49 0
-48 -49 0
-48 -680 688 0
49 -549 -688 50 0
49 687 -688 50 0
-49 688 0
-49 -50 0
-49 549 -687 0
50 687 706 51 0
50 687 -740 51 0
-50 -687 0
-50 -51 0
-50 -706 740 0
51 622 726 -740 -743 0
51 -622 -726 -740 -743 0
51 -622 726 -740 743 0
51 622 -726 -740 743 0
-51 740 0
-51 622 -726 -743 0
-51 622 726 743 0
-51 -622 -726 743 0
-51 -622 726 -743 0
52 -688 53 0
52 640 53 0
-52 -53 0
-52 -640 688 0
53 -616 -688 54 0
53 687 -688 54 0
-53 688 0
-53 -54 0
-53 616 -687 0
54 687 695 55 0
54 687 -740 55 0
-54 -687 0
-54 -55 0
-54 -695 740 0
55 -574 -740 -25 0
55 -574 -740 -18 0
55 574 -740 18 25 0
-55 574 -18 0
-55 -574 18 25 0
-55 740 0
-55 574 -25 0
56 -688 57 0
56 555 57 0
-56 -57 0
-56 -555 688 0
57 -591 -688 58 0
57 687 -688 58 0
-57 688 0
-57 -58 0
-57 591 -687 0
58 579 687 59 0
58 687 -740 59 0
-58 -59 0
-58 -687 0
-58 -579 740 0
59 -707 -740 -27 0
59 -707 -740 -16 0
59 707 -740 16 27 0
-59 707 -16 0
-59 -707 16 27 0
-59 740 0
-59 707 -27 0
60 -642 -9 -61 0
60 642 9 -61 0
-60 61 0
-60 -642 9 0
-60 642 -9 0
61 579 740 10 -62 0
61 579 -740 -10 -62 0
61 -579 -740 -10 62 0
61 -579 740 10 62 0
-61 -579 -62 0
-61 579 62 0
-61 -740 10 0
-61 740 -10 0
62 30 -56 0
62 -30 56 0
-62 -30 -56 0
-62 30 56 0
63 696 64 66 -67 0
63 -696 64 -66 -67 0
-63 67 0
-63 696 -66 0
-63 -64 0
-63 -696 66 0
64 -674 -65 0
64 674 65 0
-64 674 -65 0
-64 -674 65 0
65 11 -29 0
65 -11 29 0
-65 -11 -29 0
-65 11 29 0
66 5 -10 0
-66 -5 0
-66 10 0
67 671 -68 -71 0
67 11 -68 -71 0
-67 71 0
-67 68 0
-67 -671 -11 0
68 695 -69 -70 0
68 -695 69 -70 0
-68 70 0
-68 695 69 0
-68 -695 -69 0
69 31 -52 0
69 -31 52 0
-69 -31 -52 0
-69 31 52 0
70 555 12 0
70 -671 56 0
70 555 -671 0
70 12 56 0
-70 -555 -56 0
-70 671 -12 0
71 -555 -72 -189 0
71 57 -72 -189 0
-71 189 0
-71 72 0
-71 555 -57 0
72 -73 -92 -163 -187 0
-72 187 0
-72 73 0
-72 163 0
-72 92 0
73 -590 74 90 -91 0
73 590 74 -90 -91 0
-73 -74 0
-73 -590 -90 0
-73 91 0
-73 590 90 0
74 75 89 0
74 508 -575 75 0
74 -508 575 75 0
-74 -75 0
-74 508 575 -89 0
-74 -508 -575 -89 0
75 -506 507 76 0
75 -506 507 697 0
-75 506 0
-75 -507 0
-75 -697 -76 0
76 -632 -77 0
-76 632 0
-76 77 0
77 -575 -725 -78 0
-77 575 0
-77 725 0
-77 78 0
78 -643 -79 -82 0
-78 643 0
-78 79 0
-78 82 0
79 -581 -731 -80 -81 0
-79 81 0
-79 581 0
-79 80 0
-79 731 0
80 580 582 634 0
-80 -580 0
-80 -634 0
-80 -582 0
81 676 -685 0
-81 -676 0
-81 685 0
82 -506 -569 -83 0
-82 506 0
-82 569 0
-82 83 0
83 550 -84 0
-83 -550 0
-83 84 0
84 607 -85 0
-84 -607 0
-84 85 0
85 603 -86 0
-85 -603 0
-85 86 0
86 558 -87 0
-86 -558 0
-86 87 0
87 595 -88 0
-87 -595 0
-87 88 0
88 659 662 714 716 0
-88 -716 0
-88 -714 0
-88 -659 0
-88 -662 0
89 -522 -725 0
89 522 725 0
-89 522 -725 0
-89 -522 725 0
90 32 -36 0
90 -32 36 0
-90 -32 -36 0
-90 32 36 0
91 52 78 0
91 640 75 0
91 52 75 0
91 640 78 0
-91 -640 -52 0
-91 -78 -75 0
92 577 93 -110 0
92 -577 -93 -110 0
92 -577 -109 -110 0
-92 110 0
-92 577 -93 0
-92 -577 93 109 0
93 -94 103 0
93 -630 -94 -96 0
-93 94 0
-93 630 -103 0
-93 96 -103 0
94 550 -95 0
-94 -550 0
-94 95 0
95 507 -84 0
-95 -507 0
-95 84 0
96 79 97 100 0
-96 -79 0
-96 -100 0
-96 -97 0
97 -581 98 0
-97 581 0
-97 -98 0
98 -676 0
98 -509 -685 0
98 99 0
98 509 685 0
-98 -509 676 685 -99 0
-98 509 676 -685 -99 0
99 731 -80 0
-99 -731 0
-99 80 0
100 -80 -101 0
-100 80 0
-100 101 0
101 -676 -685 -102 0
-101 676 0
-101 685 0
-101 102 0
102 -581 -667 0
-102 581 0
-102 667 0
103 525 104 -107 0
103 104 106 -107 0
-103 107 0
-103 -104 0
-103 -525 -106 0
104 98 -105 0
-104 -98 0
-104 105 0
105 -581 667 0
-105 581 0
-105 -667 0
106 -731 -100 0
-106 731 0
-106 100 0
107 79 108 0
107 524 526 0
107 526 108 0
107 524 79 0
-107 -526 -79 0
-107 -524 -108 0
108 -99 -101 0
-108 99 0
-108 101 0
109 507 83 0
-109 -507 0
-109 -83 0
110 -604 83 115 0
110 604 -111 -115 0
110 604 83 -115 0
110 -604 -111 115 0
-110 -604 -115 0
-110 604 115 0
-110 -83 111 0
111 -605 112 0
111 -615 113 0
111 -605 -615 0
111 112 113 0
-111 605 -113 0
-111 615 -112 0
112 507 -597 0
112 507 83 0
-112 -507 0
-112 597 -83 0
113 507 114 0
-113 -507 0
-113 -114 0
114 581 -83 0
-114 -581 0
-114 83 0
115 -122 -142 0
115 -116 -142 0
-115 142 0
-115 116 122 0
116 -117 120 0
116 583 120 0
-116 -120 0
-116 -583 117 0
117 118 119 0
-117 -118 0
-117 -119 0
118 687 696 0
-118 -687 0
-118 -696 0
119 696 753 0
119 564 675 753 0
-119 -753 0
-119 -675 -696 0
-119 -564 -696 0
120 119 121 0
-120 -119 0
-120 -121 0
121 687 696 0
121 584 -687 0
121 604 687 0
-121 -584 -687 0
-121 -604 687 -696 0
122 123 -128 0
-122 -123 0
-122 128 0
123 -124 -125 0
123 567 -125 0
-123 125 0
-123 -567 124 0
124 -696 0
124 -599 -687 0
-124 599 696 0
-124 687 696 0
125 126 127 0
125 559 598 0
125 598 127 0
125 559 126 0
-125 -598 -126 0
-125 -559 -127 0
126 687 -696 0
-126 -687 0
-126 696 0
127 -599 -687 0
127 -687 -696 0
-127 687 0
-127 599 696 0
128 129 -131 0
-128 -129 0
-128 131 0
129 -124 -130 0
129 683 -130 0
-129 130 0
-129 -683 124 0
130 698 126 0
130 684 127 0
130 126 127 0
130 684 698 0
-130 -684 -126 0
-130 -698 -127 0
131 -132 -137 0
-131 132 0
-131 137 0
132 133 135 0
-132 -133 0
-132 -135 0
133 -124 -134 0
133 589 -134 0
-133 134 0
-133 -589 124 0
134 663 126 0
134 556 127 0
134 126 127 0
134 556 663 0
-134 -556 -126 0
-134 -663 -127 0
135 -124 -136 0
135 648 -136 0
-135 136 0
-135 -648 124 0
136 733 126 0
136 694 127 0
136 126 127 0
136 694 733 0
-136 -694 -126 0
-136 -733 -127 0
137 138 140 0
-137 -138 0
-137 -140 0
138 -124 -139 0
138 739 -139 0
-138 139 0
-138 -739 124 0
139 711 126 0
139 670 127 0
139 126 127 0
139 670 711 0
-139 -670 -126 0
-139 -711 -127 0
140 -124 -141 0
140 617 -141 0
-140 141 0
-140 -617 124 0
141 126 127 0
141 629 738 0
141 738 127 0
141 629 126 0
-141 -738 -126 0
-141 -629 -127 0
142 143 154 -161 0
142 143 154 159 0
-142 -143 0
-142 -154 0
-142 -159 161 0
143 -116 -144 -148 -152 0
-143 152 0
-143 116 0
-143 148 0
-143 144 0
144 -145 -146 0
144 720 -146 0
-144 146 0
-144 -720 145 0
145 -696 0
145 -687 -754 0
-145 696 754 0
-145 687 696 0
146 126 147 0
146 566 690 0
146 690 147 0
146 566 126 0
-146 -690 -126 0
-146 -566 -147 0
147 -687 -696 0
147 -687 -754 0
-147 687 0
-147 696 754 0
148 -149 151 0
148 -677 -687 -149 0
-148 149 0
-148 677 -151 0
-148 687 -151 0
149 -624 150 0
149 126 150 0
-149 -150 0
-149 624 -126 0
150 -677 -687 699 0
150 -687 -696 699 0
-150 687 0
-150 -699 0
-150 677 696 0
151 628 696 0
-151 -628 0
-151 -696 0
152 -145 -153 0
152 710 -153 0
-152 153 0
-152 -710 145 0
153 126 147 0
153 701 742 0
153 742 147 0
153 701 126 0
-153 -742 -126 0
-153 -701 -147 0
154 -155 157 0
-154 155 0
-154 -157 0
155 -145 -156 0
155 732 -156 0
-155 156 0
-155 -732 145 0
156 126 147 0
156 565 666 0
156 666 147 0
156 565 126 0
-156 -666 -126 0
-156 -565 -147 0
157 -145 -158 0
157 563 -158 0
-157 158 0
-157 -563 145 0
158 693 126 0
158 613 147 0
158 126 147 0
158 613 693 0
-158 -613 -126 0
-158 -693 -147 0
159 -145 -160 0
159 548 -160 0
-159 160 0
-159 -548 145 0
160 126 147 0
160 553 681 0
160 681 147 0
160 553 126 0
-160 -681 -126 0
-160 -553 -147 0
161 -145 -162 0
161 609 -162 0
-161 162 0
-161 -609 145 0
162 633 126 0
162 551 147 0
162 126 147 0
162 551 633 0
-162 -551 -126 0
-162 -633 -147 0
163 -667 -164 -182 0
163 667 -164 177 0
163 -667 -164 -177 0
-163 164 0
-163 667 -177 0
-163 -667 177 182 0
164 -165 -174 0
164 507 86 -174 0
-164 174 0
-164 -86 165 0
-164 -507 165 0
165 -507 603 0
165 603 607 166 0
-165 -603 0
-165 507 -166 0
-165 507 -607 0
166 -513 167 0
-166 513 0
-166 -167 0
167 515 -168 0
-167 -515 0
-167 168 0
168 514 -169 0
-168 -514 0
-168 169 0
169 516 -170 0
-169 -516 0
-169 170 0
170 512 -171 0
-170 -512 0
-170 171 0
171 510 511 172 0
-171 -510 0
-171 -172 0
-171 -511 0
172 510 512 -173 0
-172 173 0
-172 -512 0
-172 -510 0
173 513 514 515 516 0
-173 -516 0
-173 -515 0
-173 -513 0
-173 -514 0
174 731 -176 0
174 -109 -176 0
174 -175 -176 0
-174 176 0
-174 -731 109 175 0
175 507 -586 -83 0
-175 83 0
-175 586 0
-175 -507 0
176 -637 -113 0
176 637 113 0
176 83 -113 0
-176 -637 113 0
-176 637 -83 -113 0
177 -102 -179 0
177 -114 -178 -179 0
-177 179 0
-177 102 178 0
-177 102 114 0
178 -594 615 0
-178 594 0
-178 -615 0
179 507 180 0
-179 -507 0
-179 -180 0
180 -571 181 178 0
180 746 181 178 0
-180 -178 0
-180 -181 0
-180 571 -746 0
181 -569 581 586 605 0
-181 -605 0
-181 -586 0
-181 569 0
-181 -581 0
182 507 83 0
182 507 -180 183 0
-182 -507 0
-182 -83 180 0
-182 -83 -183 0
183 -685 -184 0
-183 685 0
-183 184 0
184 -676 -185 0
-184 676 0
-184 185 0
185 -731 -186 0
-185 731 0
-185 186 0
186 -580 -582 -634 0
-186 580 0
-186 582 0
-186 634 0
187 75 188 0
187 82 -75 0
187 79 -75 0
-187 75 -188 0
-187 -79 -82 -75 0
188 543 -643 0
188 -543 643 0
-188 -543 -643 0
-188 543 643 0
189 -190 -195 -473 -483 0
-189 483 0
-189 190 0
-189 473 0
-189 195 0
190 697 -191 193 0
190 191 192 193 0
-190 -193 0
-190 191 -192 0
-190 -697 -191 0
191 533 75 0
-191 -533 0
-191 -75 0
192 -507 697 0
192 697 -76 0
192 506 697 0
-192 -697 0
-192 -506 507 76 0
193 -507 194 0
193 -77 194 0
193 506 194 0
-193 -194 0
-193 -506 507 77 0
194 -530 -632 75 0
194 530 632 75 0
-194 -75 0
-194 -530 632 0
-194 530 -632 0
195 -196 -234 -250 -254 0
-195 254 0
-195 196 0
-195 250 0
-195 234 0
196 -197 -214 -219 -229 0
-196 229 0
-196 197 0
-196 219 0
-196 214 0
197 -619 -198 205 0
197 -198 205 210 0
-197 198 0
-197 -205 0
-197 619 -210 0
198 -109 202 0
198 -199 202 0
198 682 202 0
-198 -202 0
-198 -682 109 199 0
199 -94 200 0
199 -540 -94 -96 0
-199 94 0
-199 540 -200 0
-199 96 -200 0
200 97 -201 0
200 575 -201 0
-200 201 0
-200 -575 -97 0
201 106 108 0
201 541 542 0
201 542 108 0
201 541 106 0
-201 -542 -106 0
-201 -541 -108 0
202 -571 -203 0
-202 571 0
-202 203 0
203 109 204 0
-203 -109 0
-203 -204 0
204 -646 -94 0
-204 646 0
-204 94 0
205 662 -206 0
205 662 716 -208 0
-205 -662 0
-205 -716 206 0
-205 206 208 0
206 507 207 0
206 507 84 0
-206 -507 0
-206 -84 -207 0
207 510 171 0
207 511 171 0
-207 -171 0
-207 -510 -511 0
208 507 209 0
208 507 84 0
-208 -507 0
-208 -84 -209 0
209 512 170 0
209 510 511 170 0
-209 -170 0
-209 -511 -512 0
-209 -510 -512 0
210 -94 211 0
210 -730 -94 -96 0
-210 94 0
-210 730 -211 0
-210 96 -211 0
211 544 212 213 0
211 212 108 213 0
-211 -213 0
-211 -212 0
-211 -544 -108 0
212 -643 -79 0
-212 643 0
-212 79 0
213 -545 -106 0
-213 545 0
-213 106 0
214 -208 -215 217 0
214 714 -215 217 0
-214 215 0
-214 -217 0
-214 -714 208 0
215 670 114 216 0
215 -670 114 -216 0
215 -670 179 -216 0
215 670 179 216 0
-215 670 -216 0
-215 -670 216 0
-215 -114 -179 0
216 138 -140 144 0
216 -138 140 144 0
-216 -144 0
-216 138 140 0
-216 -138 -140 0
217 685 -218 -175 0
217 685 -175 -184 0
-217 -685 0
-217 175 0
-217 218 184 0
218 -509 676 -99 0
-218 509 0
-218 -676 0
-218 99 0
219 -557 220 221 -222 0
219 557 220 -221 -222 0
-219 -220 0
-219 -557 -221 0
-219 222 0
-219 557 221 0
220 -716 206 0
-220 716 0
-220 -206 0
221 38 -45 0
221 -38 45 0
-221 -38 -45 0
-221 38 45 0
222 745 -109 223 0
222 -745 -223 -226 0
222 745 223 -226 0
222 -745 -109 -223 0
-222 -745 223 0
-222 745 -223 0
-222 109 226 0
223 -129 -133 -135 -224 0
-223 224 0
-223 129 0
-223 135 0
-223 133 0
224 -509 -123 -225 0
-224 509 0
-224 123 0
-224 225 0
225 -138 -140 0
-225 138 0
-225 140 0
226 582 718 227 228 0
226 582 -718 227 -228 0
-226 -227 0
-226 -718 228 0
-226 -582 0
-226 718 -228 0
227 507 -586 0
-227 -507 0
-227 586 0
228 507 -751 0
-228 -507 0
-228 751 0
229 619 -230 0
229 -109 -230 0
229 -210 -230 0
-229 230 0
-229 -619 109 210 0
230 186 -231 0
230 175 -231 0
-230 231 0
-230 -175 -186 0
231 659 233 0
231 232 -233 0
-231 -232 -233 0
-231 -659 233 0
232 662 714 716 0
-232 -662 0
-232 -716 0
-232 -714 0
233 507 84 0
233 507 -516 170 0
233 507 516 -170 0
-233 -507 0
-233 516 -84 170 0
-233 -516 -84 -170 0
234 -588 -235 241 0
234 -235 241 246 0
-234 235 0
-234 -241 0
-234 588 -246 0
235 -109 240 0
235 -236 240 0
235 630 240 0
-235 -240 0
-235 -630 109 236 0
236 -94 237 0
236 -588 -94 -96 0
-236 94 0
-236 588 -237 0
-236 96 -237 0
237 106 238 -239 0
237 532 238 -239 0
-237 239 0
-237 -238 0
-237 -532 -106 0
238 98 -102 0
-238 -98 0
-238 102 0
239 531 79 0
239 529 108 0
239 79 108 0
239 529 531 0
-239 -529 -79 0
-239 -531 -108 0
240 -737 -32 0
-240 737 0
-240 32 0
241 -736 109 242 0
-241 736 0
-241 -242 0
-241 -109 0
242 -94 243 0
242 -610 -94 -96 0
-242 94 0
-242 610 -243 0
-242 96 -243 0
243 97 244 -245 0
243 632 244 -245 0
-243 245 0
-243 -244 0
-243 -632 -97 0
244 -537 -106 0
-244 537 0
-244 106 0
245 536 79 0
245 528 108 0
245 79 108 0
245 528 536 0
-245 -528 -79 0
-245 -536 -108 0
246 -94 247 0
246 -736 -94 -96 0
-246 94 0
-246 736 -247 0
-246 96 -247 0
247 97 248 -249 0
247 697 248 -249 0
-247 249 0
-247 -248 0
-247 -697 -97 0
248 -535 -106 0
-248 535 0
-248 106 0
249 534 79 0
249 527 108 0
249 79 108 0
249 527 534 0
-249 -527 -79 0
-249 -534 -108 0
250 87 -251 -253 0
250 558 -251 253 0
-250 251 0
-250 -558 253 0
-250 -87 -253 0
251 706 242 -252 0
251 -706 -736 252 0
251 706 -736 -252 0
251 -706 242 252 0
-251 -706 -252 0
-251 706 252 0
-251 736 -242 0
252 37 -48 0
252 -37 48 0
-252 -37 -48 0
-252 37 48 0
253 507 84 0
253 507 -515 168 0
253 507 515 -168 0
-253 -507 0
-253 515 -84 168 0
-253 -515 -84 -168 0
254 -255 -278 -462 -470 0
-254 470 0
-254 255 0
-254 462 0
-254 278 0
255 -256 -272 -274 -275 0
-255 275 0
-255 256 0
-255 274 0
-255 272 0
256 -257 262 264 -266 0
-256 266 0
-256 -264 0
-256 257 0
-256 -262 0
257 -746 -258 261 0
257 204 -258 261 0
-257 258 0
-257 -261 0
-257 746 -204 0
258 556 747 0
258 -113 -259 0
258 747 -259 0
258 556 -113 0
-258 -747 113 0
-258 -556 259 0
259 133 -135 -260 0
259 133 137 -260 0
259 -133 135 -137 -260 0
-259 -133 -135 0
-259 -133 137 0
-259 260 0
-259 133 135 -137 0
260 144 223 0
-260 -144 0
-260 -223 0
261 586 -83 -113 0
-261 113 0
-261 83 0
-261 -586 0
262 -507 -581 0
262 -581 -83 263 0
-262 581 0
-262 507 -263 0
-262 507 83 0
263 -747 183 0
263 -747 180 0
-263 747 0
-263 -180 -183 0
264 -751 109 265 0
-264 751 0
-264 -265 0
-264 -109 0
265 -94 -105 -183 0
-265 94 0
-265 105 0
-265 183 0
266 -730 -267 0
266 595 268 0
266 595 -730 0
266 -267 268 0
-266 -595 267 0
-266 730 -268 0
267 507 84 0
267 507 -514 169 0
267 507 514 -169 0
-267 -507 0
-267 514 -84 169 0
-267 -514 -84 -169 0
268 -94 -97 0
268 -94 269 0
-268 94 0
-268 97 -269 0
269 520 -79 0
269 79 -270 0
-269 -520 -79 0
-269 79 270 0
270 -100 -271 0
270 577 100 0
-270 -100 271 0
-270 -577 100 0
271 519 731 0
271 518 -731 0
-271 -519 731 0
-271 -518 -731 0
272 -556 694 273 0
272 -694 259 -273 0
272 -556 -694 -273 0
272 694 259 273 0
-272 694 -273 0
-272 -694 273 0
-272 556 -259 0
273 -135 -137 144 0
273 135 137 144 0
-273 -144 0
-273 -135 137 0
-273 135 -137 0
274 -675 -122 267 0
274 675 122 267 0
274 -675 88 -122 0
274 675 88 122 0
-274 -675 122 0
-274 675 -122 0
-274 -88 -267 0
275 -564 142 276 -277 0
275 564 -142 276 -277 0
-275 277 0
-275 564 142 0
-275 -276 0
-275 -564 -142 0
276 -730 109 268 0
-276 730 0
-276 -268 0
-276 -109 0
277 -571 33 0
277 -737 204 0
277 -571 -737 0
277 33 204 0
-277 571 -204 0
-277 737 -33 0
278 -279 -286 -290 -324 0
-278 324 0
-278 279 0
-278 290 0
-278 286 0
279 586 -280 -281 0
279 -113 -280 -281 0
-279 281 0
-279 280 0
-279 -586 113 0
280 48 95 0
280 650 680 0
280 680 95 0
280 650 48 0
-280 -680 -48 0
-280 -650 -95 0
281 678 -722 -282 -283 0
281 678 722 -282 283 0
281 -678 -722 282 -283 0
281 -678 722 282 283 0
-281 -678 -282 0
-281 678 282 0
-281 722 -283 0
-281 -722 283 0
282 39 -42 0
282 -39 42 0
-282 -39 -42 0
-282 39 42 0
283 507 -152 284 0
-283 -507 0
-283 152 0
-283 -284 0
284 -145 -285 0
284 621 -285 0
-284 285 0
-284 -621 145 0
285 126 147 0
285 638 702 0
285 702 147 0
285 638 126 0
-285 -702 -126 0
-285 -638 -147 0
286 -109 287 0
286 287 -288 0
286 709 287 0
-286 -287 0
-286 -709 109 288 0
287 594 -597 -94 0
287 594 83 -94 0
-287 -594 0
-287 94 0
-287 597 -83 0
288 -94 -105 -186 -289 0
-288 289 0
-288 94 0
-288 186 0
-288 105 0
289 -676 -685 731 0
-289 676 0
-289 685 0
-289 -731 0
290 -291 -299 319 -320 0
-290 320 0
-290 291 0
-290 299 0
-290 -319 0
291 49 292 -293 0
291 -680 292 -293 0
-291 293 0
-291 -292 0
-291 680 -49 0
292 -507 -607 0
292 -607 -85 0
-292 607 0
-292 507 85 0
293 645 -668 -209 -294 0
293 645 668 -209 294 0
293 -645 -668 209 -294 0
293 -645 668 209 294 0
-293 -645 -209 0
-293 645 209 0
-293 668 -294 0
-293 -668 294 0
294 507 295 0
-294 -507 0
-294 -295 0
295 627 -296 0
295 -296 -298 0
-295 296 0
-295 -627 298 0
296 126 297 0
296 606 636 0
296 636 297 0
296 606 126 0
-296 -636 -126 0
-296 -606 -297 0
297 -654 -687 0
297 -687 -696 0
-297 687 0
-297 654 696 0
298 -696 0
298 -654 -687 0
-298 654 696 0
-298 687 696 0
299 -573 -300 -312 315 0
299 573 -300 312 315 0
-299 -315 0
-299 -573 312 0
-299 300 0
-299 573 -312 0
300 732 -301 -302 0
300 155 -301 -302 0
-300 302 0
-300 301 0
-300 -732 -155 0
301 627 161 0
301 609 295 0
301 161 295 0
301 609 627 0
-301 -609 -161 0
-301 -627 -295 0
302 -600 -303 308 0
302 39 -303 308 0
-302 303 0
-302 -308 0
-302 600 -39 0
303 589 -305 0
303 133 304 0
303 133 -305 0
303 589 304 0
-303 -589 -133 0
-303 -304 305 0
304 -715 718 0
-304 715 0
-304 -718 0
305 -735 306 0
305 -554 307 0
305 -554 -735 0
305 306 307 0
-305 735 -307 0
-305 554 -306 0
306 507 -619 0
306 507 304 0
-306 -507 0
-306 619 -304 0
307 507 -610 0
307 507 304 0
-307 -507 0
-307 610 -304 0
308 -507 -623 309 0
308 -623 736 -309 0
-308 623 0
-308 -736 -309 0
-308 507 309 0
309 520 526 -310 -311 0
-309 -520 0
-309 311 0
-309 310 0
-309 -526 0
310 527 -528 529 0
-310 -527 0
-310 528 0
-310 -529 0
311 507 -718 0
-311 -507 0
-311 718 0
312 507 313 0
-312 -507 0
-312 -313 0
313 -298 -314 0
313 647 -314 0
-313 314 0
-313 -647 298 0
314 631 126 0
314 587 297 0
314 126 297 0
314 587 631 0
-314 -587 -126 0
-314 -631 -297 0
315 660 316 -317 0
315 -660 -117 316 317 0
-315 117 317 0
-315 -660 -317 0
-315 -316 0
-315 660 317 0
316 -564 620 753 0
-316 564 0
-316 -753 0
-316 -620 0
317 119 318 0
-317 -119 0
-317 -318 0
318 -687 692 0
318 687 691 0
318 687 696 0
-318 -687 -692 0
-318 687 -691 -696 0
319 -582 634 -175 0
-319 582 0
-319 -634 0
-319 175 0
320 -587 116 -321 323 0
320 587 -116 -321 323 0
-320 -323 0
-320 587 116 0
-320 321 0
-320 -587 -116 0
321 -620 738 -116 322 0
321 620 -738 116 -322 0
321 620 738 116 322 0
321 -620 -738 -116 -322 0
-321 -620 116 0
-321 620 -116 0
-321 738 -322 0
-321 -738 322 0
322 -140 144 0
-322 140 0
-322 -144 0
323 -724 -207 0
323 724 207 0
-323 724 -207 0
-323 -724 207 0
324 -325 -344 -368 -392 0
-324 392 0
-324 325 0
-324 368 0
-324 344 0
325 -662 -326 -342 0
325 -95 -326 -342 0
-325 342 0
-325 326 0
-325 662 95 0
326 -327 -330 340 341 0
-326 330 0
-326 -341 0
-326 327 0
-326 -340 0
327 726 170 328 -329 0
327 -726 -170 328 -329 0
-327 -328 0
-327 726 -170 0
-327 329 0
-327 -726 170 0
328 621 285 0
328 -621 -145 -285 0
-328 -621 145 0
-328 621 -285 0
-328 -621 285 0
329 -712 39 -116 0
329 712 -39 -116 0
329 -690 712 -39 0
329 -690 -712 39 0
-329 -712 -39 0
-329 712 39 0
-329 690 116 0
330 -720 -331 -337 0
330 -146 -331 -337 0
-330 337 0
-330 331 0
-330 720 146 0
331 -628 -332 0
331 148 311 0
331 -628 311 0
331 148 -332 0
-331 628 -148 0
-331 -311 332 0
332 -333 335 -336 0
332 -576 -333 335 0
-332 333 0
-332 -335 0
-332 576 336 0
333 -752 334 0
333 -718 730 334 0
-333 -334 0
-333 -730 752 0
-333 718 752 0
334 700 718 0
334 -577 700 0
-334 -700 0
-334 577 -718 0
335 679 718 0
335 -619 679 0
-335 -679 0
-335 619 -718 0
336 -718 736 0
-336 718 0
-336 -736 0
337 -732 -338 339 0
337 -156 -338 339 0
-337 338 0
-337 -339 0
-337 732 156 0
338 -609 -130 0
338 -683 -162 0
338 -609 -683 0
338 -130 -162 0
-338 683 130 0
-338 609 162 0
339 627 296 0
-339 -627 0
-339 -296 0
340 -742 -116 0
340 -702 -116 0
-340 116 0
-340 702 742 0
341 -585 -46 0
341 585 -688 46 0
-341 688 46 0
-341 585 -46 0
-341 -585 46 0
342 583 -116 343 0
342 -742 116 343 0
-342 -343 0
-342 -583 -116 0
-342 742 116 0
343 651 -144 0
343 -651 144 0
-343 -651 -144 0
-343 651 144 0
344 -345 -360 -361 -362 0
-344 362 0
-344 345 0
-344 361 0
-344 360 0
345 -346 -350 -351 -358 0
-345 358 0
-345 346 0
-345 351 0
-345 350 0
346 602 347 -348 0
346 -507 -602 -347 0
346 -507 602 347 0
-346 -602 347 0
-346 507 348 0
-346 507 -602 0
-346 602 -347 0
347 511 172 0
-347 -511 0
-347 -172 0
348 662 304 0
348 662 -349 0
-348 -662 0
-348 -304 349 0
349 -705 -717 0
349 630 730 0
349 630 -705 0
349 -717 730 0
-349 -630 717 0
-349 705 -730 0
350 138 140 0
350 617 739 0
350 739 140 0
350 617 138 0
-350 -739 -138 0
-350 -617 -140 0
351 548 -352 -356 0
351 159 -352 -356 0
-351 356 0
-351 352 0
-351 -548 -159 0
352 -658 353 -355 0
352 658 353 355 0
-352 -353 0
-352 -658 355 0
-352 658 -355 0
353 -673 354 0
353 608 -639 673 -354 0
-353 -608 673 0
-353 -673 -354 0
-353 639 -354 0
-353 673 354 0
354 507 722 0
-354 -507 0
-354 -722 0
355 507 547 0
355 507 -619 0
-355 -507 0
-355 -547 619 0
356 -593 -713 -357 0
356 593 713 357 0
-356 -713 357 0
-356 593 -357 0
-356 -593 713 0
357 507 605 -637 0
-357 637 0
-357 -605 0
-357 -507 0
358 648 359 0
358 135 359 0
-358 -359 0
-358 -648 -135 0
359 708 -6 0
359 -561 -708 6 0
359 -642 -708 6 0
-359 708 6 0
-359 -708 -6 0
-359 561 642 6 0
360 144 313 0
360 647 720 0
360 720 313 0
360 647 144 0
-360 -720 -144 0
-360 -647 -313 0
361 683 123 0
361 567 129 0
361 123 129 0
361 567 683 0
-361 -567 -123 0
-361 -683 -129 0
362 152 363 -367 0
362 710 363 -367 0
-362 367 0
-362 -363 0
-362 -710 -152 0
363 -304 -364 0
363 655 -304 -366 0
-363 304 0
-363 -655 364 0
-363 364 366 0
364 656 -365 0
-364 -656 0
-364 365 0
365 507 -577 0
365 507 304 0
-365 -507 0
-365 577 -304 0
366 507 -736 0
366 507 304 0
-366 -507 0
-366 736 -304 0
367 563 42 0
367 -704 157 0
367 563 -704 0
367 42 157 0
-367 -563 -157 0
-367 704 -42 0
368 -369 -370 -371 -386 0
-368 386 0
-368 369 0
-368 371 0
-368 370 0
369 -648 -134 0
369 -589 -136 0
369 -589 -648 0
369 -134 -136 0
-369 648 136 0
-369 589 134 0
370 -563 120 0
370 -583 -158 0
370 -563 -583 0
370 120 -158 0
-370 583 -120 0
-370 563 158 0
371 -548 -372 -382 0
371 -160 -372 -382 0
-371 382 0
-371 372 0
-371 548 160 0
372 -373 374 375 -376 0
-372 376 0
-372 -375 0
-372 373 0
-372 -374 0
373 610 649 0
373 507 -610 -649 0
373 -507 649 0
373 507 718 0
-373 -507 -649 0
-373 610 -649 -718 0
-373 507 -610 649 -718 0
374 -507 -576 0
374 -576 -718 736 0
-374 576 0
-374 507 -736 0
-374 507 718 0
375 -507 -700 0
375 577 -700 -718 0
-375 700 0
-375 507 -577 0
-375 507 718 0
376 -618 -377 380 -381 0
376 618 -377 380 381 0
-376 -380 0
-376 618 -381 0
-376 377 0
-376 -618 381 0
377 -664 378 0
377 729 378 379 0
-377 -378 0
-377 664 -379 0
-377 664 -729 0
378 -507 -679 0
378 619 -679 -718 0
-378 679 0
-378 507 -619 0
-378 507 718 0
379 507 -523 0
-379 -507 0
-379 523 0
380 -507 -728 0
380 588 -718 -728 0
-380 728 0
-380 507 -588 0
-380 507 718 0
381 507 -517 0
-381 -507 0
-381 517 0
382 568 639 383 -384 0
382 -568 -639 -383 -384 0
-382 -639 383 0
-382 568 -383 0
-382 384 0
-382 -568 639 0
383 507 -521 0
-383 -507 0
-383 521 0
384 664 385 0
384 -729 -379 385 0
-384 -385 0
-384 -664 729 0
-384 -664 379 0
385 -507 -752 0
385 -718 730 -752 0
-385 752 0
-385 507 718 0
-385 507 -730 0
386 -387 -388 -389 -390 0
-386 390 0
-386 387 0
-386 389 0
-386 388 0
387 -647 -139 0
387 -739 -314 0
387 -647 -739 0
387 -139 -314 0
-387 739 139 0
-387 647 314 0
388 -710 -125 0
388 -567 -153 0
388 -567 -710 0
388 -125 -153 0
-388 710 153 0
-388 567 125 0
389 -617 40 0
389 600 -141 0
389 600 -617 0
389 40 -141 0
-389 617 141 0
-389 -600 -40 0
390 43 391 0
390 -623 704 0
390 704 391 0
390 -623 43 0
-390 -704 -43 0
-390 623 -391 0
391 -736 -309 0
-391 736 0
-391 309 0
392 -393 -399 -402 -412 0
-392 412 0
-392 393 0
-392 402 0
-392 399 0
393 -149 -394 398 0
393 628 -394 398 0
-393 394 0
-393 -398 0
-393 -628 149 0
394 -703 395 -397 0
394 703 395 397 0
-394 -395 0
-394 -703 397 0
-394 703 -397 0
395 -625 396 0
395 569 -618 625 -396 0
-395 -569 625 0
-395 -625 -396 0
-395 618 -396 0
-395 625 396 0
396 507 593 0
-396 -507 0
-396 -593 0
397 596 -311 0
-397 -596 0
-397 311 0
398 507 570 -588 -304 0
-398 -507 0
-398 304 0
-398 588 0
-398 -570 0
399 669 355 400 -401 0
399 -669 -355 400 -401 0
-399 -400 0
-399 669 -355 0
-399 401 0
-399 -669 355 0
400 -578 354 0
400 578 -626 664 -354 0
-400 -664 -354 0
-400 578 354 0
-400 -578 -354 0
-400 578 626 0
401 655 656 0
401 -365 -366 0
401 656 -366 0
401 655 -365 0
-401 -656 365 0
-401 -655 366 0
402 -403 -407 410 411 0
-402 407 0
-402 -411 0
-402 403 0
-402 -410 0
403 -306 -404 406 0
403 554 -404 406 0
-403 404 0
-403 -406 0
-403 -554 306 0
404 570 735 0
404 -307 -405 0
404 735 -405 0
404 570 -307 0
-404 -735 307 0
-404 -570 405 0
405 507 -588 0
405 507 304 0
-405 -507 0
-405 588 -304 0
406 -646 396 0
406 646 729 -750 -396 0
-406 646 -729 0
-406 -646 -396 0
-406 750 -396 0
-406 646 396 0
407 592 718 409 0
407 -592 -408 409 0
407 592 408 409 0
-407 -409 0
-407 -592 408 0
-407 592 -718 -408 0
408 507 -682 0
408 507 718 0
-408 -507 0
-408 682 -718 0
409 507 611 -682 -304 0
-409 -507 0
-409 304 0
-409 682 0
-409 -611 0
410 -507 -717 0
410 630 -717 -304 0
-410 717 0
-410 507 -630 0
-410 507 304 0
411 -507 -705 0
411 -705 730 -304 0
-411 705 0
-411 507 304 0
-411 507 -730 0
412 -413 -429 -433 -442 0
-412 442 0
-412 413 0
-412 433 0
-412 429 0
413 -414 -418 -423 -426 0
-413 426 0
-413 414 0
-413 423 0
-413 418 0
414 397 -415 -416 -417 0
-414 -397 0
-414 417 0
-414 416 0
-414 415 0
415 698 699 701 711 0
-415 -711 0
-415 -701 0
-415 -698 0
-415 -699 0
416 -688 689 692 693 0
-416 -693 0
-416 -692 0
-416 688 0
-416 -689 0
417 -727 733 741 748 0
-417 -748 0
-417 -741 0
-417 727 0
-417 -733 0
418 -419 -420 -421 -422 0
-418 422 0
-418 419 0
-418 421 0
-418 420 0
419 616 622 629 631 0
-419 -631 0
-419 -629 0
-419 -616 0
-419 -622 0
420 584 591 601 606 0
-420 -606 0
-420 -601 0
-420 -584 0
-420 -591 0
421 652 663 665 686 0
-421 -686 0
-421 -665 0
-421 -652 0
-421 -663 0
422 633 635 638 641 0
-422 -641 0
-422 -638 0
-422 -633 0
-422 -635 0
423 613 673 -424 425 0
423 -613 -673 -424 425 0
-423 -425 0
-423 -613 673 0
-423 424 0
-423 613 -673 0
424 -513 -707 379 0
424 513 707 379 0
424 513 -626 707 0
424 -513 -626 -707 0
-424 -513 707 0
-424 513 -707 0
-424 626 -379 0
425 644 -646 0
425 -644 646 0
-425 -644 -646 0
-425 644 646 0
426 673 755 427 -428 0
426 -673 -755 427 -428 0
-426 -427 0
-426 673 -755 0
-426 428 0
-426 -673 755 0
427 -657 381 0
-427 657 0
-427 -381 0
428 -593 626 -661 0
428 593 626 661 0
428 593 661 -379 0
428 -593 -661 -379 0
-428 -593 661 0
-428 593 -661 0
-428 -626 379 0
429 672 718 -431 0
429 -672 -430 -431 0
429 672 430 -431 0
-429 431 0
-429 -672 430 0
-429 672 -718 -430 0
430 507 -630 0
430 507 718 0
-430 -507 0
-430 630 -718 0
431 -653 -734 -432 0
431 653 734 432 0
-431 -734 432 0
-431 653 -432 0
-431 -653 734 0
432 507 -562 0
-432 -507 0
-432 562 0
433 -434 -436 -437 -438 0
-433 438 0
-433 434 0
-433 437 0
-433 436 0
434 507 561 -435 0
434 -507 -599 -435 0
-434 435 0
-434 507 -561 0
-434 -507 599 0
435 -551 -560 0
435 560 578 0
-435 551 -560 0
-435 560 -578 0
436 553 559 565 566 0
-436 -566 0
-436 -565 0
-436 -553 0
-436 -559 0
437 549 552 -702 0
437 549 552 690 0
-437 -549 0
-437 -552 0
-437 -690 702 0
438 578 681 -439 -441 0
438 -578 -681 -439 -441 0
-438 441 0
-438 -578 681 0
-438 439 0
-438 578 -681 0
439 -578 -440 0
439 551 -440 0
-439 440 0
-439 -551 578 0
440 -572 749 0
440 -608 750 0
440 -572 -608 0
440 749 750 0
-440 572 -750 0
-440 608 -749 0
441 550 -561 0
441 507 599 0
441 550 599 0
441 507 -561 0
-441 -507 -550 0
-441 561 -599 0
442 -443 -445 -448 -451 0
-442 451 0
-442 443 0
-442 448 0
-442 445 0
443 588 -444 0
443 -728 -444 0
443 311 -444 0
-443 444 0
-443 -588 728 -311 0
444 -514 515 574 -744 0
444 -514 -515 -574 -744 0
444 514 515 574 744 0
444 514 -515 -574 744 0
-444 514 -744 0
-444 -514 744 0
-444 -515 574 0
-444 515 -574 0
445 -383 -446 447 0
445 608 -446 447 0
-445 446 0
-445 -447 0
-445 -608 383 0
446 -657 379 0
446 -750 381 0
446 -657 -750 0
446 379 381 0
-446 657 -381 0
-446 750 -379 0
447 -572 379 0
-447 572 0
-447 -379 0
448 -449 450 0
448 611 450 0
-448 -450 0
-448 -611 449 0
449 507 -682 0
449 507 304 0
-449 -507 0
-449 682 -304 0
450 -597 396 0
450 568 597 -749 -396 0
-450 597 749 0
-450 -597 -396 0
-450 597 396 0
-450 -568 -396 0
451 -452 -453 -454 -457 0
-451 457 0
-451 452 0
-451 454 0
-451 453 0
452 -507 723 -753 0
452 507 -521 753 0
452 507 723 753 0
-452 507 -753 0
-452 521 -723 0
-452 -507 753 0
-452 -723 -753 0
453 507 596 754 0
453 -507 596 -754 0
453 507 -718 754 0
-453 -596 718 0
-453 507 -754 0
-453 -507 754 0
-453 -596 -754 0
454 650 719 -455 456 0
454 -650 -719 -455 -456 0
-454 719 -456 0
-454 -650 456 0
-454 455 0
-454 650 -719 0
455 -507 -654 0
455 507 654 -723 0
455 507 521 654 0
-455 -507 654 0
-455 507 -654 0
-455 507 -521 723 0
456 507 -747 0
-456 -507 0
-456 747 0
457 -458 -459 -460 -461 0
-457 461 0
-457 458 0
-457 460 0
-457 459 0
458 -507 666 673 -677 0
458 -507 -666 -673 -677 0
458 507 666 673 677 0
458 507 -666 -673 677 0
-458 507 -677 0
-458 -507 677 0
-458 -666 673 0
-458 666 -673 0
459 -516 597 614 -743 0
459 -516 -597 -614 -743 0
459 516 597 614 743 0
459 516 -597 -614 743 0
-459 516 -743 0
-459 -516 743 0
-459 -597 614 0
-459 597 -614 0
460 -517 -624 383 0
460 517 624 -749 0
460 517 624 383 0
460 -517 -624 -749 0
-460 517 -624 0
-460 -517 624 0
-460 749 -383 0
461 507 687 -721 -722 0
461 -507 -687 -721 -722 0
461 507 687 721 722 0
461 -507 -687 721 722 0
-461 507 -687 0
-461 -507 687 0
-461 721 -722 0
-461 -721 722 0
462 463 468 -469 0
462 -547 468 -469 0
-462 469 0
-462 -468 0
-462 547 -463 0
463 -94 464 0
-463 94 0
-463 -464 0
464 102 465 0
464 685 218 465 0
-464 -465 0
-464 -218 -102 0
-464 -685 -102 0
465 -466 -105 0
465 -81 -105 467 0
-465 105 0
-465 466 -467 0
-465 81 466 0
466 685 -218 0
-466 -685 0
-466 218 0
467 -580 -634 -731 0
-467 580 0
-467 634 0
-467 731 0
468 -582 -634 109 0
468 -634 109 175 0
-468 634 0
-468 -109 0
-468 582 -175 0
469 605 615 0
469 -112 -113 0
469 615 -113 0
469 605 -112 0
-469 -615 112 0
-469 -605 113 0
470 -112 -471 472 0
470 594 -471 472 0
-470 471 0
-470 -472 0
-470 -594 112 0
471 -709 265 0
471 -751 288 0
471 -709 -751 0
471 265 288 0
-471 709 -288 0
-471 751 -265 0
472 -547 109 463 0
-472 547 0
-472 -463 0
-472 -109 0
473 -598 -474 -475 0
473 598 474 -475 0
-473 475 0
-473 -598 474 0
-473 598 -474 0
474 144 -223 0
474 -123 -128 144 0
474 123 128 144 0
-474 -144 0
-474 -123 128 223 0
-474 123 -128 223 0
475 -640 691 476 0
475 -691 53 -476 0
475 -640 -691 -476 0
475 691 53 476 0
-475 691 -476 0
-475 -691 476 0
-475 640 -53 0
476 142 481 482 0
476 -142 -477 481 0
-476 -481 0
-476 142 -482 0
-476 -142 477 0
477 122 -478 0
-477 -122 0
-477 478 0
478 479 480 0
-478 -479 0
-478 -480 0
479 660 -316 0
479 660 317 0
-479 -660 0
-479 316 -317 0
480 -117 316 317 0
-480 117 0
-480 -317 0
-480 -316 0
481 116 478 0
-481 -116 0
-481 -478 0
482 -116 154 0
-482 116 0
-482 -154 0
483 -484 -492 497 -500 0
-483 500 0
-483 484 0
-483 492 0
-483 -497 0
484 236 485 -487 0
484 -630 485 -487 0
-484 487 0
-484 -485 0
-484 630 -236 0
485 715 -486 0
485 -715 109 486 0
-485 -109 486 0
-485 -715 -486 0
-485 715 486 0
486 -709 -94 0
-486 709 0
-486 94 0
487 -109 488 0
487 488 -489 0
487 610 488 0
-487 -488 0
-487 -610 109 489 0
488 682 -199 0
-488 -682 0
-488 199 0
489 -94 490 0
489 -682 -94 -96 0
-489 94 0
-489 682 -490 0
-489 96 -490 0
490 725 79 491 0
490 79 97 491 0
-490 -491 0
-490 -79 0
-490 -725 -97 0
491 -539 731 -100 0
491 -538 -731 -100 0
-491 100 0
-491 539 731 0
-491 538 -731 0
492 -610 -493 496 0
492 489 -493 496 0
-492 493 0
-492 -496 0
-492 610 -489 0
493 636 746 494 0
493 -636 746 -494 0
493 -636 203 -494 0
493 636 203 494 0
-493 636 -494 0
-493 -636 494 0
-493 -746 -203 0
494 116 -495 0
494 116 -478 0
494 116 -123 0
-494 -116 0
-494 123 478 495 0
495 -129 -138 0
495 -129 132 0
-495 129 0
-495 -132 138 0
496 -588 109 246 0
-496 588 0
-496 -246 0
-496 -109 0
497 109 -498 0
497 -569 109 381 0
497 569 109 -381 0
-497 -109 0
-497 -569 -381 498 0
-497 569 381 498 0
498 -507 -562 0
498 -562 -499 0
498 507 562 499 0
-498 -507 562 0
-498 562 -499 0
-498 507 -562 499 0
499 -685 -464 0
499 581 -464 0
-499 464 0
-499 -581 685 0
500 684 501 502 505 0
500 -684 -501 502 505 0
-500 -502 0
-500 -684 501 0
-500 -505 0
-500 684 -501 0
501 -129 -131 -260 0
501 129 131 -260 0
-501 260 0
-501 -129 131 0
-501 129 -131 0
502 109 -175 503 0
502 109 503 504 0
-502 -109 0
-502 -503 0
-502 175 -504 0
503 634 -175 0
503 582 -175 0
-503 175 0
-503 -582 -634 0
504 580 685 0
-504 -580 0
-504 -685 0
505 -676 109 175 0
505 676 -175 -185 0
505 -676 109 -185 0
-505 -676 -109 0
-505 676 175 0
-505 -175 185 0
965 0
2 4 0
-2 -4 0
3 4 0
-3 -4 0
3 0

